<number of tasks>
58

<cycle time>
68

<task times>
1 10
2 53
3 41
4 36
5 35
6 17
7 34
8 23
9 14
10 52
11 33
12 34
13 12
14 52
15 12
16 33
17 44
18 7
19 15
20 13
21 29
22 37
23 43
24 23
25 24
26 9
27 16
28 12
29 26
30 22
31 51
32 47
33 34
34 23
35 12
36 52
37 12
38 33
39 44
40 7
41 15
42 13
43 29
44 37
45 43
46 23
47 24
48 9
49 16
50 12
51 26
52 12
53 52
54 12
55 33
56 44
57 7
58 15

<precedence relations>
1,9
2,25
3,21
3,22
4,10
5,36
6,23
6,24
7,43
8,44
9,11
11,13
11,14
11,15
12,17
13,17
14,17
15,17
16,18
17,20
18,19
19,23
20,21
20,25
21,26
21,44
22,27
23,31
24,31
25,38
26,29
27,30
28,32
28,33
29,31
30,34
31,36
32,45
33,35
34,36
35,43
36,37
36,38
37,39
37,40
37,41
38,52
39,43
40,43
41,42
42,43
43,45
44,45
45,46
45,48
45,49
46,47
46,50
47,51
48,55
49,58
50,58
51,52
52,53
53,54
54,55
54,56
55,57
56,57
57,58

<setup times forward>
1,2:10
1,4:3
1,5:4
1,6:3
1,7:9
1,8:1
1,10:4
1,12:2
1,16:2
1,18:9
1,19:2
1,22:5
1,23:2
1,24:12
1,27:4
1,28:10
1,30:12
1,32:9
1,33:9
1,34:12
1,35:3
2,1:10
2,3:10
2,4:7
2,5:14
2,6:7
2,7:1
2,8:11
2,9:10
2,10:14
2,11:14
2,12:8
2,13:16
2,14:16
2,15:7
2,16:8
2,17:11
2,18:19
2,19:12
2,20:19
2,21:5
2,22:5
2,23:12
2,24:22
2,25:22
2,26:12
2,27:14
2,29:7
2,30:22
2,31:3
2,32:19
2,33:1
2,34:22
2,35:13
2,36:24
2,37:13
2,39:13
2,40:8
2,41:8
2,42:8
2,43:8
2,44:7
2,45:3
2,46:3
2,47:3
2,48:4
2,49:3
2,50:4
2,51:3
3,2:10
3,4:3
3,5:4
3,6:3
3,7:9
3,8:1
3,10:4
3,11:4
3,12:2
3,13:6
3,14:6
3,15:3
3,16:2
3,17:1
3,18:9
3,19:2
3,20:9
3,21:5
3,22:5
3,23:2
3,24:12
3,25:12
3,28:10
3,32:9
3,33:9
3,35:3
4,1:3
4,2:7
4,3:3
4,5:7
4,7:6
4,8:4
4,9:3
4,10:7
4,11:7
4,12:1
4,13:9
4,14:9
4,16:1
4,17:4
4,18:12
4,19:5
4,20:12
4,21:2
4,22:2
4,23:5
4,24:15
4,25:15
4,26:5
4,27:7
4,28:7
4,30:15
4,31:4
4,32:12
4,33:6
4,34:15
4,35:6
4,36:17
4,37:6
4,38:15
4,39:6
4,40:1
4,41:1
4,42:1
4,43:1
4,45:4
4,46:4
4,47:4
4,48:3
4,49:4
4,50:3
4,51:4
4,52:12
4,53:12
4,54:3
4,55:3
4,56:6
4,57:6
4,58:6
5,1:4
5,2:14
5,3:4
5,4:7
5,6:7
5,7:13
5,8:3
5,9:4
5,12:6
5,13:2
5,14:2
5,15:7
5,16:6
5,17:3
5,18:5
5,19:2
5,20:5
5,21:9
5,22:9
5,23:2
5,24:8
5,25:8
5,26:2
5,28:14
5,29:7
5,30:8
5,31:11
5,32:5
5,33:13
5,34:8
5,35:1
5,36:10
5,44:7
6,1:3
6,2:7
6,3:3
6,5:7
6,7:6
6,8:4
6,9:3
6,10:7
6,11:7
6,12:1
6,13:9
6,14:9
6,16:1
6,17:4
6,18:12
6,19:5
6,20:12
6,21:2
6,22:2
6,23:5
6,24:15
6,25:15
6,26:5
6,27:7
6,28:7
6,30:15
6,32:12
6,33:6
6,34:15
6,35:6
7,1:9
7,2:1
7,3:9
7,4:6
7,5:13
7,6:6
7,8:10
7,9:9
7,10:13
7,11:13
7,12:7
7,13:15
7,14:15
7,15:6
7,16:7
7,17:10
7,18:18
7,19:11
7,20:18
7,21:4
7,22:4
7,23:11
7,24:21
7,25:21
7,26:11
7,27:13
7,28:1
7,29:6
7,30:21
7,31:2
7,32:18
7,34:21
7,35:12
7,36:23
7,37:12
7,38:21
7,39:12
7,40:7
7,41:7
7,42:7
7,43:7
7,44:6
8,1:1
8,2:11
8,3:1
8,4:4
8,5:3
8,6:4
8,7:10
8,9:1
8,10:3
8,11:3
8,12:3
8,13:5
8,14:5
8,15:4
8,16:3
8,18:8
8,19:1
8,20:8
8,21:6
8,22:6
8,23:1
8,24:11
8,25:11
8,26:1
8,27:3
8,28:11
8,29:4
8,30:11
8,31:8
8,32:8
8,33:10
8,34:11
8,35:2
8,36:13
8,37:2
8,38:11
8,39:2
8,40:3
8,41:3
8,42:3
8,43:3
8,44:4
9,2:10
9,4:3
9,5:4
9,6:3
9,7:9
9,8:1
9,10:4
9,11:4
9,12:2
9,16:2
9,18:9
9,19:2
9,22:5
9,23:2
9,24:12
9,27:4
9,28:10
9,30:12
9,32:9
9,33:9
9,34:12
9,35:3
10,1:4
10,2:14
10,3:4
10,6:7
10,7:13
10,8:3
10,9:4
10,12:6
10,13:2
10,14:2
10,15:7
10,16:6
10,17:3
10,18:5
10,19:2
10,20:5
10,21:9
10,22:9
10,23:2
10,24:8
10,25:8
10,26:2
10,28:14
10,29:7
10,30:8
10,31:11
10,32:5
10,33:13
10,34:8
10,35:1
10,36:10
10,37:1
10,38:8
10,39:1
10,40:6
10,41:6
10,42:6
10,43:6
10,44:7
10,45:11
10,46:11
10,47:11
10,48:10
10,49:11
10,50:10
10,51:11
10,52:5
10,53:5
10,54:10
10,55:10
10,56:1
10,57:1
10,58:1
11,2:14
11,3:4
11,4:7
11,6:7
11,7:13
11,8:3
11,12:6
11,13:2
11,14:2
11,15:7
11,16:6
11,18:5
11,19:2
11,22:9
11,23:2
11,24:8
11,28:14
11,30:8
11,32:5
11,33:13
11,34:8
11,35:1
12,1:2
12,2:8
12,3:2
12,4:1
12,5:6
12,6:1
12,7:7
12,8:3
12,9:2
12,10:6
12,11:6
12,13:8
12,14:8
12,15:1
12,17:3
12,18:11
12,19:4
12,22:3
12,23:4
12,24:14
12,27:6
12,28:8
12,30:14
12,32:11
12,33:7
12,34:14
12,35:5
13,2:16
13,3:6
13,4:9
13,5:2
13,6:9
13,7:15
13,8:5
13,10:2
13,12:8
13,15:9
13,16:8
13,17:5
13,18:3
13,19:4
13,22:11
13,23:4
13,24:6
13,27:2
13,28:16
13,30:6
13,32:3
13,33:15
13,34:6
13,35:3
14,2:16
14,3:6
14,4:9
14,5:2
14,6:9
14,7:15
14,8:5
14,10:2
14,12:8
14,15:9
14,16:8
14,17:5
14,18:3
14,19:4
14,22:11
14,23:4
14,24:6
14,27:2
14,28:16
14,30:6
14,32:3
14,33:15
14,34:6
14,35:3
15,2:7
15,3:3
15,5:7
15,7:6
15,8:4
15,10:7
15,12:1
15,13:9
15,14:9
15,16:1
15,17:4
15,18:12
15,19:5
15,22:2
15,23:5
15,24:15
15,27:7
15,28:7
15,30:15
15,32:12
15,33:6
15,34:15
15,35:6
16,1:2
16,2:8
16,3:2
16,4:1
16,5:6
16,6:1
16,7:7
16,8:3
16,9:2
16,10:6
16,11:6
16,13:8
16,14:8
16,15:1
16,17:3
16,18:11
16,20:11
16,21:3
16,22:3
16,24:14
16,25:14
16,26:4
16,27:6
16,28:8
16,29:1
16,30:14
16,32:11
16,33:7
16,34:14
16,35:5
16,44:1
17,2:11
17,3:1
17,4:4
17,5:3
17,6:4
17,7:10
17,10:3
17,16:3
17,18:8
17,19:1
17,20:8
17,22:6
17,23:1
17,24:11
17,27:3
17,28:11
17,30:11
17,32:8
17,33:10
17,34:11
17,35:2
18,1:9
18,2:19
18,3:9
18,4:12
18,5:5
18,6:12
18,7:18
18,8:8
18,9:9
18,10:5
18,11:5
18,12:11
18,13:3
18,14:3
18,15:12
18,17:8
18,19:7
18,21:14
18,22:14
18,24:3
18,25:3
18,26:7
18,27:5
18,28:19
18,29:12
18,30:3
18,33:18
18,34:3
18,35:6
18,44:12
19,1:2
19,2:12
19,3:2
19,4:5
19,5:2
19,6:5
19,7:11
19,8:1
19,9:2
19,10:2
19,11:2
19,12:4
19,13:4
19,14:4
19,15:5
19,17:1
19,20:7
19,21:7
19,22:7
19,24:10
19,25:10
19,27:2
19,28:12
19,29:5
19,30:10
19,32:7
19,33:11
19,34:10
19,35:1
19,44:5
20,2:19
20,3:9
20,4:12
20,5:5
20,6:12
20,7:18
20,8:8
20,10:5
20,16:11
20,19:7
20,21:14
20,22:14
20,23:7
20,24:3
20,25:3
20,27:5
20,28:19
20,30:3
20,33:18
20,34:3
20,35:6
21,2:5
21,4:2
21,5:9
21,6:2
21,7:4
21,8:6
21,10:9
21,16:3
21,18:14
21,19:7
21,23:7
21,24:17
21,25:17
21,26:7
21,27:9
21,28:5
21,30:17
21,32:14
21,33:4
21,34:17
21,35:8
21,44:2
22,1:5
22,2:5
22,4:2
22,5:9
22,6:2
22,7:4
22,8:6
22,9:5
22,10:9
22,11:9
22,12:3
22,13:11
22,14:11
22,15:2
22,16:3
22,17:6
22,18:14
22,19:7
22,20:14
22,23:7
22,24:17
22,25:17
22,26:7
22,27:9
22,28:5
22,29:2
22,31:2
22,32:14
22,33:4
22,35:8
22,44:2
23,1:2
23,2:12
23,3:2
23,4:5
23,5:2
23,7:11
23,8:1
23,9:2
23,10:2
23,11:2
23,12:4
23,13:4
23,14:4
23,15:5
23,17:1
23,20:7
23,21:7
23,22:7
23,24:10
23,25:10
23,27:2
23,28:12
23,29:5
23,30:10
23,31:9
23,32:7
23,33:11
23,34:10
23,35:1
23,44:5
24,1:12
24,2:22
24,3:12
24,4:15
24,5:8
24,7:21
24,8:11
24,9:12
24,10:8
24,11:8
24,12:14
24,13:6
24,14:6
24,15:15
24,16:14
24,17:11
24,18:3
24,19:10
24,20:3
24,21:17
24,22:17
24,23:10
24,26:10
24,27:8
24,28:22
24,29:15
24,31:19
24,32:3
24,33:21
24,35:9
24,44:15
25,3:12
25,4:15
25,5:8
25,6:15
25,7:21
25,8:11
25,10:8
25,16:14
25,18:3
25,19:10
25,21:17
25,22:17
25,23:10
25,26:10
25,27:8
25,28:22
25,29:15
25,31:19
25,32:3
25,33:21
25,35:9
25,36:2
25,37:9
25,39:9
25,40:14
25,41:14
25,42:14
25,43:14
25,44:15
25,45:19
25,46:19
25,47:19
25,48:18
25,49:19
25,50:18
25,51:19
26,2:12
26,4:5
26,5:2
26,6:5
26,7:11
26,8:1
26,10:2
26,16:4
26,18:7
26,22:7
26,24:10
26,25:10
26,27:2
26,28:12
26,29:5
26,30:10
26,32:7
26,33:11
26,34:10
26,35:1
26,44:5
27,1:4
27,2:14
27,4:7
27,6:7
27,7:13
27,8:3
27,9:4
27,12:6
27,13:2
27,14:2
27,15:7
27,16:6
27,17:3
27,18:5
27,19:2
27,20:5
27,21:9
27,23:2
27,24:8
27,25:8
27,26:2
27,28:14
27,29:7
27,30:8
27,31:11
27,32:5
27,33:13
27,35:1
27,44:7
28,1:10
28,3:10
28,4:7
28,5:14
28,6:7
28,7:1
28,8:11
28,9:10
28,10:14
28,11:14
28,12:8
28,13:16
28,14:16
28,15:7
28,16:8
28,17:11
28,18:19
28,19:12
28,20:19
28,21:5
28,22:5
28,23:12
28,24:22
28,25:22
28,26:12
28,27:14
28,29:7
28,30:22
28,31:3
28,32:19
28,33:1
28,34:22
28,36:24
28,37:13
28,38:22
28,39:13
28,40:8
28,41:8
28,42:8
28,44:7
29,2:7
29,5:7
29,7:6
29,8:4
29,10:7
29,16:1
29,18:12
29,19:5
29,22:2
29,23:5
29,24:15
29,25:15
29,27:7
29,28:7
29,30:15
29,31:4
29,32:12
29,33:6
29,34:15
29,35:6
30,1:12
30,2:22
30,4:15
30,5:8
30,6:15
30,7:21
30,8:11
30,9:12
30,10:8
30,11:8
30,12:14
30,13:6
30,14:6
30,15:15
30,16:14
30,17:11
30,18:3
30,19:10
30,20:3
30,21:17
30,23:10
30,26:10
30,28:22
30,29:15
30,31:19
30,32:3
30,33:21
30,35:9
30,44:15
31,2:3
31,4:4
31,5:11
31,7:2
31,8:8
31,10:11
31,22:2
31,25:19
31,27:11
31,28:3
31,30:19
31,32:16
31,33:2
31,34:19
31,35:10
31,36:21
31,44:4
32,1:9
32,2:19
32,3:9
32,4:12
32,5:5
32,6:12
32,7:18
32,8:8
32,9:9
32,10:5
32,11:5
32,12:11
32,13:3
32,14:3
32,15:12
32,16:11
32,17:8
32,19:7
32,21:14
32,22:14
32,23:7
32,24:3
32,25:3
32,26:7
32,27:5
32,29:12
32,30:3
32,31:16
32,33:18
32,34:3
32,35:6
32,36:5
32,37:6
32,38:3
32,39:6
32,40:11
32,41:11
32,42:11
32,43:11
32,44:12
32,45:16
33,1:9
33,2:1
33,3:9
33,4:6
33,5:13
33,6:6
33,8:10
33,9:9
33,10:13
33,11:13
33,12:7
33,13:15
33,14:15
33,15:6
33,16:7
33,17:10
33,18:18
33,19:11
33,20:18
33,21:4
33,22:4
33,23:11
33,24:21
33,25:21
33,26:11
33,27:13
33,29:6
33,30:21
33,31:2
33,32:18
33,34:21
33,35:12
33,36:23
33,37:12
33,38:21
33,39:12
33,40:7
33,41:7
33,42:7
33,44:6
34,1:12
34,2:22
34,4:15
34,5:8
34,6:15
34,7:21
34,8:11
34,9:12
34,10:8
34,11:8
34,12:14
34,13:6
34,14:6
34,15:15
34,16:14
34,17:11
34,18:3
34,19:10
34,20:3
34,21:17
34,23:10
34,26:10
34,28:22
34,29:15
34,31:19
34,32:3
34,33:21
34,35:9
34,36:2
34,44:15
35,1:3
35,2:13
35,3:3
35,4:6
35,5:1
35,6:6
35,7:12
35,8:2
35,9:3
35,10:1
35,11:1
35,12:5
35,13:3
35,14:3
35,15:6
35,16:5
35,17:2
35,18:6
35,19:1
35,20:6
35,21:8
35,22:8
35,23:1
35,24:9
35,25:9
35,26:1
35,27:1
35,29:6
35,30:9
35,31:10
35,32:6
35,34:9
35,36:11
35,38:9
35,40:5
35,41:5
35,42:5
35,43:5
35,44:6
36,2:24
36,4:17
36,7:23
36,8:13
36,10:10
36,25:2
36,28:24
36,32:5
36,33:23
36,35:11
36,37:11
36,38:2
36,44:17
37,2:13
37,4:6
37,7:12
37,8:2
37,10:1
37,25:9
37,28:13
37,32:6
37,33:12
37,38:9
37,40:5
37,41:5
37,44:6
38,4:15
38,7:21
38,8:11
38,10:8
38,28:22
38,32:3
38,33:21
38,35:9
38,37:9
38,39:9
38,40:14
38,41:14
38,42:14
38,43:14
38,44:15
38,45:19
38,46:19
38,47:19
38,48:18
38,49:19
38,50:18
38,51:19
38,52:3
39,2:13
39,4:6
39,7:12
39,8:2
39,10:1
39,25:9
39,28:13
39,32:6
39,33:12
39,38:9
39,40:5
39,41:5
39,42:5
39,43:5
39,44:6
40,2:8
40,4:1
40,7:7
40,8:3
40,10:6
40,25:14
40,28:8
40,32:11
40,33:7
40,35:5
40,38:14
40,39:5
40,44:1
41,2:8
41,4:1
41,7:7
41,8:3
41,10:6
41,25:14
41,28:8
41,32:11
41,33:7
41,35:5
41,38:14
41,39:5
41,44:1
42,2:8
42,4:1
42,7:7
42,8:3
42,10:6
42,25:14
42,28:8
42,32:11
42,33:7
42,35:5
42,38:14
42,39:5
42,44:1
43,2:8
43,4:1
43,8:3
43,10:6
43,25:14
43,32:11
43,38:14
43,44:1
43,45:5
44,2:7
44,5:7
44,7:6
44,10:7
44,16:1
44,18:12
44,19:5
44,22:2
44,23:5
44,24:15
44,25:15
44,26:5
44,27:7
44,28:7
44,30:15
44,31:4
44,32:12
44,33:6
44,34:15
44,35:6
44,36:17
44,37:6
44,38:15
44,39:6
44,40:1
44,41:1
44,42:1
44,43:1
44,45:4
45,2:3
45,4:4
45,10:11
45,25:19
45,38:19
45,48:1
46,2:3
46,4:4
46,10:11
46,25:19
46,38:19
46,48:1
46,50:1
47,2:3
47,4:4
47,10:11
47,25:19
47,38:19
47,48:1
47,50:1
48,2:4
48,4:3
48,10:10
48,25:18
48,38:18
48,46:1
48,47:1
48,49:1
48,51:1
48,52:15
48,53:15
48,56:9
49,2:3
49,4:4
49,10:11
49,25:19
49,38:19
49,48:1
49,50:1
49,52:16
49,53:16
49,54:1
49,55:1
49,56:10
49,57:10
49,58:10
50,2:4
50,4:3
50,10:10
50,25:18
50,38:18
50,47:1
50,49:1
50,51:1
50,52:15
50,53:15
50,56:9
50,57:9
50,58:9
51,2:3
51,4:4
51,10:11
51,25:19
51,38:19
51,48:1
51,50:1
51,52:16
52,4:12
52,10:5
52,48:15
52,49:16
52,50:15
53,4:12
53,10:5
53,48:15
53,49:16
53,50:15
53,54:15
54,4:3
54,10:10
54,49:1
54,56:9
55,4:3
55,10:10
55,49:1
55,56:9
55,57:9
56,4:6
56,10:1
56,48:9
56,49:10
56,50:9
56,55:9
57,4:6
57,10:1
57,49:10
57,50:9
58,4:6
58,10:1

<setup times backward>
1,5:4
1,8:1
1,10:4
1,18:9
1,19:2
1,23:2
1,24:12
1,27:4
1,30:12
1,32:9
1,34:12
1,35:3
2,1:10
2,3:10
2,4:7
2,5:14
2,6:7
2,7:1
2,8:11
2,9:10
2,10:14
2,11:14
2,12:8
2,13:16
2,14:16
2,15:7
2,16:8
2,17:11
2,18:19
2,19:12
2,20:19
2,21:5
2,22:5
2,23:12
2,24:22
2,26:12
2,27:14
2,29:7
2,30:22
2,31:3
2,32:19
2,33:1
2,34:22
2,35:13
2,36:24
2,37:13
2,39:13
2,40:8
2,41:8
2,42:8
2,43:8
2,44:7
2,45:3
2,46:3
2,47:3
2,48:4
2,49:3
2,50:4
2,51:3
3,5:4
3,8:1
3,10:4
3,11:4
3,13:6
3,14:6
3,17:1
3,18:9
3,19:2
3,20:9
3,23:2
3,24:12
3,25:12
3,32:9
3,35:3
4,1:3
4,3:3
4,5:7
4,8:4
4,9:3
4,11:7
4,12:1
4,13:9
4,14:9
4,16:1
4,17:4
4,18:12
4,19:5
4,20:12
4,23:5
4,24:15
4,25:15
4,26:5
4,27:7
4,30:15
4,32:12
4,34:15
4,35:6
4,36:17
4,37:6
4,38:15
4,39:6
4,40:1
4,41:1
4,42:1
4,43:1
4,52:12
4,53:12
4,56:6
4,57:6
4,58:6
5,13:2
5,14:2
5,18:5
5,20:5
5,24:8
5,25:8
5,30:8
5,32:5
5,34:8
6,1:3
6,3:3
6,5:7
6,8:4
6,9:3
6,10:7
6,11:7
6,12:1
6,13:9
6,14:9
6,16:1
6,17:4
6,18:12
6,19:5
6,20:12
6,25:15
6,26:5
6,27:7
6,30:15
6,32:12
6,34:15
6,35:6
7,1:9
7,3:9
7,4:6
7,5:13
7,6:6
7,8:10
7,9:9
7,10:13
7,11:13
7,12:7
7,13:15
7,14:15
7,15:6
7,16:7
7,17:10
7,18:18
7,19:11
7,20:18
7,21:4
7,22:4
7,23:11
7,24:21
7,25:21
7,26:11
7,27:13
7,29:6
7,30:21
7,31:2
7,32:18
7,34:21
7,35:12
7,36:23
7,37:12
7,38:21
7,39:12
7,40:7
7,41:7
7,42:7
7,44:6
8,5:3
8,10:3
8,11:3
8,13:5
8,14:5
8,18:8
8,19:1
8,20:8
8,23:1
8,24:11
8,25:11
8,26:1
8,27:3
8,30:11
8,32:8
8,34:11
8,35:2
8,36:13
8,37:2
8,38:11
8,39:2
9,5:4
9,8:1
9,10:4
9,18:9
9,19:2
9,23:2
9,24:12
9,27:4
9,30:12
9,32:9
9,34:12
9,35:3
10,13:2
10,14:2
10,18:5
10,20:5
10,24:8
10,25:8
10,30:8
10,32:5
10,34:8
10,36:10
10,38:8
10,52:5
10,53:5
11,18:5
11,24:8
11,30:8
11,32:5
11,34:8
12,1:2
12,3:2
12,5:6
12,8:3
12,9:2
12,10:6
12,11:6
12,13:8
12,14:8
12,18:11
12,19:4
12,23:4
12,24:14
12,27:6
12,30:14
12,32:11
12,34:14
12,35:5
13,18:3
13,24:6
13,30:6
13,32:3
13,34:6
14,18:3
14,24:6
14,30:6
14,32:3
14,34:6
15,1:3
15,3:3
15,5:7
15,8:4
15,9:3
15,10:7
15,11:7
15,12:1
15,13:9
15,14:9
15,16:1
15,18:12
15,19:5
15,23:5
15,24:15
15,27:7
15,30:15
15,32:12
15,34:15
15,35:6
16,1:2
16,3:2
16,5:6
16,8:3
16,9:2
16,10:6
16,11:6
16,13:8
16,14:8
16,17:3
16,20:11
16,24:14
16,25:14
16,26:4
16,27:6
16,30:14
16,32:11
16,34:14
16,35:5
17,5:3
17,10:3
17,11:3
17,13:5
17,14:5
17,18:8
17,19:1
17,23:1
17,24:11
17,27:3
17,30:11
17,32:8
17,34:11
17,35:2
18,24:3
18,25:3
18,30:3
18,34:3
19,5:2
19,10:2
19,11:2
19,13:4
19,14:4
19,18:7
19,20:7
19,24:10
19,25:10
19,27:2
19,30:10
19,32:7
19,34:10
19,35:1
20,24:3
20,30:3
20,34:3
21,1:5
21,3:5
21,4:2
21,5:9
21,6:2
21,8:6
21,9:5
21,10:9
21,11:9
21,12:3
21,13:11
21,14:11
21,15:2
21,16:3
21,17:6
21,18:14
21,19:7
21,20:14
21,23:7
21,24:17
21,25:17
21,27:9
21,30:17
21,32:14
21,34:17
21,35:8
22,1:5
22,3:5
22,4:2
22,5:9
22,6:2
22,8:6
22,9:5
22,10:9
22,11:9
22,12:3
22,13:11
22,14:11
22,15:2
22,16:3
22,17:6
22,18:14
22,19:7
22,20:14
22,23:7
22,24:17
22,25:17
22,26:7
22,29:2
22,32:14
22,35:8
22,44:2
23,5:2
23,10:2
23,11:2
23,13:4
23,14:4
23,18:7
23,20:7
23,24:10
23,25:10
23,27:2
23,30:10
23,32:7
23,34:10
23,35:1
25,36:2
26,5:2
26,10:2
26,11:2
26,13:4
26,14:4
26,18:7
26,20:7
26,24:10
26,25:10
26,27:2
26,30:10
26,32:7
26,34:10
26,35:1
27,13:2
27,14:2
27,18:5
27,20:5
27,24:8
27,25:8
27,32:5
28,1:10
28,3:10
28,4:7
28,5:14
28,6:7
28,7:1
28,8:11
28,9:10
28,10:14
28,11:14
28,12:8
28,13:16
28,14:16
28,15:7
28,16:8
28,17:11
28,18:19
28,19:12
28,20:19
28,21:5
28,22:5
28,23:12
28,24:22
28,25:22
28,26:12
28,27:14
28,29:7
28,30:22
28,31:3
28,34:22
28,36:24
28,37:13
28,38:22
28,39:13
28,40:8
28,41:8
28,42:8
28,44:7
29,1:3
29,3:3
29,5:7
29,8:4
29,9:3
29,10:7
29,11:7
29,12:1
29,13:9
29,14:9
29,16:1
29,17:4
29,18:12
29,19:5
29,20:12
29,23:5
29,24:15
29,25:15
29,26:5
29,27:7
29,30:15
29,32:12
29,34:15
29,35:6
31,1:7
31,3:7
31,4:4
31,5:11
31,6:4
31,8:8
31,9:7
31,10:11
31,11:11
31,12:5
31,13:13
31,14:13
31,15:4
31,16:5
31,17:8
31,18:16
31,19:9
31,20:16
31,21:2
31,22:2
31,23:9
31,24:19
31,25:19
31,26:9
31,27:11
31,29:4
31,30:19
31,32:16
31,34:19
31,35:10
31,44:4
32,24:3
32,25:3
32,30:3
32,34:3
32,36:5
32,38:3
33,1:9
33,3:9
33,4:6
33,5:13
33,6:6
33,8:10
33,9:9
33,10:13
33,11:13
33,12:7
33,13:15
33,14:15
33,15:6
33,16:7
33,17:10
33,18:18
33,19:11
33,20:18
33,21:4
33,22:4
33,23:11
33,24:21
33,25:21
33,26:11
33,27:13
33,29:6
33,30:21
33,31:2
33,32:18
33,34:21
33,36:23
33,37:12
33,38:21
33,39:12
33,40:7
33,41:7
33,42:7
33,44:6
35,5:1
35,10:1
35,11:1
35,13:3
35,14:3
35,18:6
35,20:6
35,24:9
35,25:9
35,27:1
35,30:9
35,32:6
35,34:9
35,36:11
35,38:9
37,5:1
37,10:1
37,11:1
37,13:3
37,14:3
37,18:6
37,20:6
37,24:9
37,25:9
37,27:1
37,30:9
37,32:6
37,34:9
37,36:11
37,38:9
38,36:2
39,5:1
39,10:1
39,11:1
39,13:3
39,14:3
39,18:6
39,20:6
39,24:9
39,25:9
39,27:1
39,30:9
39,32:6
39,34:9
39,36:11
39,38:9
40,1:2
40,3:2
40,5:6
40,8:3
40,9:2
40,10:6
40,11:6
40,13:8
40,14:8
40,17:3
40,18:11
40,19:4
40,20:11
40,23:4
40,24:14
40,25:14
40,26:4
40,27:6
40,30:14
40,32:11
40,34:14
40,35:5
40,36:16
40,37:5
40,38:14
40,39:5
41,1:2
41,3:2
41,5:6
41,8:3
41,9:2
41,10:6
41,11:6
41,13:8
41,14:8
41,17:3
41,18:11
41,19:4
41,20:11
41,23:4
41,24:14
41,25:14
41,26:4
41,27:6
41,30:14
41,32:11
41,34:14
41,35:5
41,36:16
41,37:5
41,38:14
41,39:5
42,1:2
42,3:2
42,5:6
42,8:3
42,9:2
42,10:6
42,11:6
42,13:8
42,14:8
42,17:3
42,18:11
42,19:4
42,20:11
42,23:4
42,24:14
42,25:14
42,26:4
42,27:6
42,30:14
42,32:11
42,34:14
42,35:5
42,36:16
42,37:5
42,38:14
42,39:5
43,1:2
43,3:2
43,5:6
43,8:3
43,9:2
43,10:6
43,11:6
43,13:8
43,14:8
43,17:3
43,18:11
43,19:4
43,20:11
43,23:4
43,24:14
43,25:14
43,26:4
43,27:6
43,30:14
43,32:11
43,34:14
43,35:5
43,36:16
43,37:5
43,38:14
43,39:5
44,1:3
44,3:3
44,5:7
44,8:4
44,9:3
44,10:7
44,11:7
44,12:1
44,13:9
44,14:9
44,16:1
44,17:4
44,18:12
44,19:5
44,20:12
44,23:5
44,24:15
44,25:15
44,26:5
44,27:7
44,30:15
44,32:12
44,34:15
44,35:6
44,36:17
44,37:6
44,38:15
44,39:6
44,40:1
44,41:1
44,42:1
44,43:1
45,1:7
45,3:7
45,4:4
45,5:11
45,6:4
45,8:8
45,9:7
45,10:11
45,11:11
45,12:5
45,13:13
45,14:13
45,15:4
45,16:5
45,17:8
45,18:16
45,19:9
45,20:16
45,21:2
45,22:2
45,23:9
45,24:19
45,25:19
45,26:9
45,27:11
45,29:4
45,30:19
45,32:16
45,34:19
45,35:10
45,36:21
45,37:10
45,38:19
45,39:10
45,40:5
45,41:5
45,42:5
45,43:5
45,44:4
46,1:7
46,3:7
46,4:4
46,5:11
46,6:4
46,8:8
46,9:7
46,10:11
46,11:11
46,12:5
46,13:13
46,14:13
46,15:4
46,16:5
46,17:8
46,18:16
46,19:9
46,20:16
46,21:2
46,22:2
46,23:9
46,24:19
46,25:19
46,26:9
46,27:11
46,29:4
46,30:19
46,32:16
46,34:19
46,35:10
46,36:21
46,37:10
46,38:19
46,39:10
46,40:5
46,41:5
46,42:5
46,43:5
46,44:4
46,48:1
47,1:7
47,3:7
47,4:4
47,5:11
47,6:4
47,8:8
47,9:7
47,10:11
47,11:11
47,12:5
47,13:13
47,14:13
47,15:4
47,16:5
47,17:8
47,18:16
47,19:9
47,20:16
47,21:2
47,22:2
47,23:9
47,24:19
47,25:19
47,26:9
47,27:11
47,29:4
47,30:19
47,32:16
47,34:19
47,35:10
47,36:21
47,37:10
47,38:19
47,39:10
47,40:5
47,41:5
47,42:5
47,43:5
47,44:4
47,48:1
47,50:1
48,1:6
48,3:6
48,4:3
48,5:10
48,6:3
48,8:7
48,9:6
48,10:10
48,11:10
48,12:4
48,13:12
48,14:12
48,15:3
48,16:4
48,17:7
48,18:15
48,19:8
48,20:15
48,21:1
48,22:1
48,23:8
48,24:18
48,25:18
48,26:8
48,27:10
48,29:3
48,30:18
48,32:15
48,34:18
48,35:9
48,36:20
48,37:9
48,38:18
48,39:9
48,40:4
48,41:4
48,42:4
48,43:4
48,44:3
48,52:15
48,53:15
48,56:9
49,1:7
49,3:7
49,4:4
49,5:11
49,6:4
49,8:8
49,9:7
49,10:11
49,11:11
49,12:5
49,13:13
49,14:13
49,15:4
49,16:5
49,17:8
49,18:16
49,19:9
49,20:16
49,21:2
49,22:2
49,23:9
49,24:19
49,25:19
49,26:9
49,27:11
49,29:4
49,30:19
49,32:16
49,34:19
49,35:10
49,36:21
49,37:10
49,38:19
49,39:10
49,40:5
49,41:5
49,42:5
49,43:5
49,44:4
49,48:1
49,50:1
49,52:16
49,53:16
49,54:1
49,55:1
49,56:10
49,57:10
50,1:6
50,3:6
50,4:3
50,5:10
50,6:3
50,8:7
50,9:6
50,10:10
50,11:10
50,12:4
50,13:12
50,14:12
50,15:3
50,16:4
50,17:7
50,18:15
50,19:8
50,20:15
50,21:1
50,22:1
50,23:8
50,24:18
50,25:18
50,26:8
50,27:10
50,29:3
50,30:18
50,32:15
50,34:18
50,35:9
50,36:20
50,37:9
50,38:18
50,39:9
50,40:4
50,41:4
50,42:4
50,43:4
50,44:3
50,52:15
50,53:15
50,56:9
50,57:9
51,1:7
51,3:7
51,4:4
51,5:11
51,6:4
51,8:8
51,9:7
51,10:11
51,11:11
51,12:5
51,13:13
51,14:13
51,15:4
51,16:5
51,17:8
51,18:16
51,19:9
51,20:16
51,21:2
51,22:2
51,23:9
51,24:19
51,25:19
51,26:9
51,27:11
51,29:4
51,30:19
51,32:16
51,34:19
51,35:10
51,36:21
51,37:10
51,38:19
51,39:10
51,40:5
51,41:5
51,42:5
51,43:5
51,44:4
51,48:1
51,50:1
52,24:3
52,25:3
52,30:3
52,34:3
52,36:5
52,38:3
53,24:3
53,25:3
53,30:3
53,34:3
53,36:5
53,38:3
54,1:6
54,3:6
54,4:3
54,5:10
54,6:3
54,8:7
54,9:6
54,10:10
54,11:10
54,12:4
54,13:12
54,14:12
54,15:3
54,16:4
54,17:7
54,18:15
54,19:8
54,20:15
54,21:1
54,22:1
54,23:8
54,24:18
54,25:18
54,26:8
54,27:10
54,29:3
54,30:18
54,32:15
54,34:18
54,35:9
54,36:20
54,37:9
54,38:18
54,39:9
54,40:4
54,41:4
54,42:4
54,43:4
54,44:3
54,52:15
54,53:15
55,1:6
55,3:6
55,4:3
55,5:10
55,6:3
55,8:7
55,9:6
55,10:10
55,11:10
55,12:4
55,13:12
55,14:12
55,15:3
55,16:4
55,17:7
55,18:15
55,19:8
55,20:15
55,21:1
55,22:1
55,23:8
55,24:18
55,25:18
55,26:8
55,27:10
55,29:3
55,30:18
55,32:15
55,34:18
55,35:9
55,36:20
55,37:9
55,38:18
55,39:9
55,40:4
55,41:4
55,42:4
55,43:4
55,44:3
55,52:15
55,53:15
55,56:9
56,5:1
56,10:1
56,11:1
56,13:3
56,14:3
56,18:6
56,20:6
56,24:9
56,25:9
56,27:1
56,30:9
56,32:6
56,34:9
56,36:11
56,38:9
56,52:6
56,53:6
57,5:1
57,10:1
57,11:1
57,13:3
57,14:3
57,18:6
57,20:6
57,24:9
57,25:9
57,27:1
57,30:9
57,32:6
57,34:9
57,36:11
57,38:9
57,52:6
57,53:6
58,5:1
58,10:1
58,11:1
58,13:3
58,14:3
58,18:6
58,20:6
58,24:9
58,25:9
58,27:1
58,30:9
58,32:6
58,34:9
58,36:11
58,38:9
58,52:6
58,53:6

<end>

<optimal SALBP-1 value>
24


<rand seed>
467321153

